80	1580
1	2	1
2	3	1
1	4	1
2	4	1
3	4	1
2	5	1
4	5	1
3	6	1
4	6	1
1	7	1
2	7	1
3	7	1
2	8	1
3	8	1
5	8	1
1	9	1
2	9	1
1	10	1
3	10	1
4	10	1
8	10	1
9	10	1
2	11	1
4	11	1
8	11	1
9	11	1
10	11	1
1	12	1
4	12	1
7	12	1
10	12	1
4	13	1
5	13	1
7	13	1
10	13	1
12	13	1
1	14	1
6	14	1
7	14	1
9	14	1
10	14	1
13	14	1
2	15	1
4	15	1
11	15	1
2	16	1
3	16	1
6	16	1
8	16	1
10	16	1
11	16	1
14	16	1
15	16	1
4	17	1
5	17	1
6	17	1
8	17	1
12	17	1
13	17	1
14	17	1
15	17	1
1	18	1
3	18	1
4	18	1
7	18	1
8	18	1
11	18	1
13	18	1
15	18	1
17	18	1
1	19	1
2	19	1
3	19	1
7	19	1
8	19	1
12	19	1
15	19	1
16	19	1
17	19	1
3	20	1
4	20	1
5	20	1
7	20	1
10	20	1
12	20	1
13	20	1
14	20	1
15	20	1
16	20	1
17	20	1
18	20	1
2	21	1
3	21	1
7	21	1
9	21	1
10	21	1
11	21	1
14	21	1
16	21	1
18	21	1
4	22	1
5	22	1
6	22	1
8	22	1
12	22	1
14	22	1
15	22	1
19	22	1
21	22	1
2	23	1
3	23	1
4	23	1
5	23	1
6	23	1
10	23	1
11	23	1
12	23	1
13	23	1
16	23	1
17	23	1
20	23	1
22	23	1
1	24	1
3	24	1
6	24	1
7	24	1
8	24	1
9	24	1
10	24	1
12	24	1
13	24	1
14	24	1
17	24	1
18	24	1
19	24	1
20	24	1
21	24	1
23	24	1
1	25	1
3	25	1
6	25	1
7	25	1
8	25	1
10	25	1
12	25	1
13	25	1
17	25	1
21	25	1
1	26	1
2	26	1
4	26	1
5	26	1
7	26	1
8	26	1
11	26	1
14	26	1
17	26	1
18	26	1
19	26	1
20	26	1
21	26	1
23	26	1
25	26	1
1	27	1
3	27	1
6	27	1
7	27	1
9	27	1
10	27	1
12	27	1
13	27	1
14	27	1
15	27	1
17	27	1
19	27	1
20	27	1
25	27	1
4	28	1
7	28	1
8	28	1
9	28	1
10	28	1
11	28	1
13	28	1
14	28	1
15	28	1
16	28	1
17	28	1
20	28	1
22	28	1
23	28	1
24	28	1
25	28	1
2	29	1
5	29	1
6	29	1
8	29	1
9	29	1
10	29	1
14	29	1
15	29	1
19	29	1
20	29	1
21	29	1
24	29	1
25	29	1
26	29	1
27	29	1
28	29	1
1	30	1
4	30	1
5	30	1
7	30	1
8	30	1
9	30	1
10	30	1
11	30	1
12	30	1
13	30	1
14	30	1
15	30	1
16	30	1
17	30	1
19	30	1
20	30	1
23	30	1
24	30	1
25	30	1
28	30	1
29	30	1
1	31	1
2	31	1
3	31	1
5	31	1
6	31	1
8	31	1
10	31	1
11	31	1
14	31	1
15	31	1
18	31	1
20	31	1
21	31	1
23	31	1
27	31	1
30	31	1
3	32	1
5	32	1
7	32	1
10	32	1
12	32	1
13	32	1
15	32	1
16	32	1
17	32	1
18	32	1
21	32	1
22	32	1
23	32	1
25	32	1
27	32	1
28	32	1
29	32	1
30	32	1
2	33	1
5	33	1
6	33	1
7	33	1
10	33	1
16	33	1
19	33	1
20	33	1
23	33	1
25	33	1
26	33	1
29	33	1
30	33	1
31	33	1
32	33	1
1	34	1
2	34	1
3	34	1
4	34	1
12	34	1
14	34	1
15	34	1
17	34	1
19	34	1
20	34	1
22	34	1
24	34	1
27	34	1
28	34	1
29	34	1
31	34	1
33	34	1
2	35	1
5	35	1
6	35	1
7	35	1
9	35	1
10	35	1
11	35	1
14	35	1
15	35	1
16	35	1
17	35	1
18	35	1
19	35	1
20	35	1
24	35	1
25	35	1
26	35	1
27	35	1
28	35	1
29	35	1
30	35	1
31	35	1
32	35	1
34	35	1
3	36	1
8	36	1
10	36	1
14	36	1
17	36	1
18	36	1
20	36	1
21	36	1
22	36	1
23	36	1
25	36	1
27	36	1
29	36	1
32	36	1
33	36	1
34	36	1
1	37	1
2	37	1
3	37	1
5	37	1
7	37	1
8	37	1
9	37	1
10	37	1
11	37	1
12	37	1
13	37	1
15	37	1
16	37	1
19	37	1
21	37	1
26	37	1
29	37	1
30	37	1
31	37	1
32	37	1
34	37	1
35	37	1
1	38	1
3	38	1
5	38	1
7	38	1
11	38	1
12	38	1
14	38	1
18	38	1
19	38	1
21	38	1
22	38	1
25	38	1
29	38	1
32	38	1
33	38	1
35	38	1
2	39	1
3	39	1
4	39	1
6	39	1
10	39	1
12	39	1
13	39	1
14	39	1
15	39	1
16	39	1
19	39	1
21	39	1
22	39	1
26	39	1
27	39	1
28	39	1
29	39	1
31	39	1
33	39	1
34	39	1
1	40	1
2	40	1
3	40	1
4	40	1
5	40	1
6	40	1
8	40	1
9	40	1
11	40	1
14	40	1
22	40	1
26	40	1
27	40	1
28	40	1
29	40	1
30	40	1
32	40	1
33	40	1
34	40	1
35	40	1
36	40	1
38	40	1
3	41	1
6	41	1
9	41	1
10	41	1
13	41	1
15	41	1
21	41	1
23	41	1
26	41	1
28	41	1
29	41	1
30	41	1
32	41	1
34	41	1
37	41	1
38	41	1
40	41	1
1	42	1
3	42	1
4	42	1
6	42	1
9	42	1
10	42	1
12	42	1
17	42	1
18	42	1
19	42	1
20	42	1
22	42	1
23	42	1
27	42	1
29	42	1
32	42	1
33	42	1
34	42	1
35	42	1
36	42	1
40	42	1
41	42	1
3	43	1
7	43	1
11	43	1
14	43	1
17	43	1
18	43	1
20	43	1
22	43	1
24	43	1
25	43	1
27	43	1
28	43	1
29	43	1
32	43	1
33	43	1
34	43	1
36	43	1
2	44	1
3	44	1
6	44	1
10	44	1
12	44	1
13	44	1
15	44	1
19	44	1
21	44	1
23	44	1
24	44	1
25	44	1
26	44	1
27	44	1
29	44	1
30	44	1
31	44	1
32	44	1
34	44	1
35	44	1
39	44	1
40	44	1
42	44	1
1	45	1
5	45	1
6	45	1
9	45	1
12	45	1
15	45	1
16	45	1
19	45	1
21	45	1
22	45	1
25	45	1
29	45	1
30	45	1
31	45	1
32	45	1
33	45	1
35	45	1
37	45	1
38	45	1
41	45	1
43	45	1
44	45	1
2	46	1
5	46	1
7	46	1
11	46	1
22	46	1
28	46	1
33	46	1
35	46	1
36	46	1
37	46	1
41	46	1
42	46	1
43	46	1
44	46	1
45	46	1
1	47	1
2	47	1
3	47	1
4	47	1
5	47	1
7	47	1
9	47	1
11	47	1
12	47	1
13	47	1
18	47	1
20	47	1
21	47	1
23	47	1
24	47	1
27	47	1
32	47	1
34	47	1
38	47	1
39	47	1
44	47	1
46	47	1
3	48	1
4	48	1
5	48	1
8	48	1
9	48	1
10	48	1
11	48	1
14	48	1
15	48	1
16	48	1
18	48	1
20	48	1
21	48	1
22	48	1
23	48	1
28	48	1
29	48	1
31	48	1
34	48	1
36	48	1
39	48	1
40	48	1
44	48	1
45	48	1
47	48	1
3	49	1
9	49	1
12	49	1
16	49	1
17	49	1
18	49	1
19	49	1
20	49	1
21	49	1
22	49	1
24	49	1
26	49	1
27	49	1
31	49	1
32	49	1
35	49	1
37	49	1
38	49	1
39	49	1
41	49	1
42	49	1
47	49	1
2	50	1
3	50	1
5	50	1
6	50	1
7	50	1
8	50	1
9	50	1
10	50	1
12	50	1
13	50	1
16	50	1
17	50	1
18	50	1
20	50	1
28	50	1
31	50	1
32	50	1
34	50	1
37	50	1
38	50	1
39	50	1
40	50	1
41	50	1
45	50	1
46	50	1
47	50	1
1	51	1
5	51	1
9	51	1
10	51	1
11	51	1
14	51	1
16	51	1
17	51	1
20	51	1
24	51	1
27	51	1
29	51	1
31	51	1
32	51	1
33	51	1
34	51	1
38	51	1
40	51	1
41	51	1
45	51	1
46	51	1
49	51	1
1	52	1
3	52	1
5	52	1
6	52	1
7	52	1
11	52	1
12	52	1
13	52	1
14	52	1
15	52	1
17	52	1
19	52	1
20	52	1
21	52	1
24	52	1
30	52	1
31	52	1
32	52	1
33	52	1
35	52	1
36	52	1
40	52	1
45	52	1
48	52	1
50	52	1
51	52	1
2	53	1
3	53	1
4	53	1
5	53	1
7	53	1
8	53	1
9	53	1
10	53	1
11	53	1
12	53	1
14	53	1
15	53	1
17	53	1
19	53	1
20	53	1
21	53	1
22	53	1
25	53	1
26	53	1
27	53	1
32	53	1
34	53	1
37	53	1
39	53	1
40	53	1
41	53	1
42	53	1
43	53	1
44	53	1
45	53	1
46	53	1
47	53	1
48	53	1
51	53	1
52	53	1
4	54	1
6	54	1
7	54	1
8	54	1
9	54	1
10	54	1
11	54	1
16	54	1
17	54	1
19	54	1
20	54	1
21	54	1
22	54	1
23	54	1
24	54	1
26	54	1
28	54	1
29	54	1
30	54	1
33	54	1
36	54	1
37	54	1
38	54	1
41	54	1
43	54	1
44	54	1
48	54	1
49	54	1
52	54	1
53	54	1
1	55	1
5	55	1
6	55	1
7	55	1
8	55	1
9	55	1
10	55	1
15	55	1
20	55	1
21	55	1
27	55	1
30	55	1
31	55	1
33	55	1
34	55	1
35	55	1
36	55	1
37	55	1
39	55	1
40	55	1
42	55	1
44	55	1
49	55	1
50	55	1
53	55	1
54	55	1
1	56	1
2	56	1
5	56	1
8	56	1
9	56	1
11	56	1
12	56	1
13	56	1
15	56	1
17	56	1
18	56	1
21	56	1
22	56	1
23	56	1
25	56	1
26	56	1
28	56	1
30	56	1
31	56	1
32	56	1
34	56	1
35	56	1
38	56	1
39	56	1
44	56	1
45	56	1
49	56	1
50	56	1
52	56	1
3	57	1
9	57	1
11	57	1
13	57	1
17	57	1
22	57	1
23	57	1
33	57	1
34	57	1
37	57	1
38	57	1
41	57	1
42	57	1
49	57	1
51	57	1
55	57	1
56	57	1
3	58	1
5	58	1
9	58	1
10	58	1
11	58	1
12	58	1
15	58	1
16	58	1
19	58	1
21	58	1
22	58	1
23	58	1
24	58	1
25	58	1
26	58	1
27	58	1
32	58	1
34	58	1
35	58	1
38	58	1
40	58	1
45	58	1
48	58	1
50	58	1
54	58	1
55	58	1
5	59	1
11	59	1
12	59	1
16	59	1
17	59	1
19	59	1
22	59	1
24	59	1
26	59	1
29	59	1
30	59	1
32	59	1
34	59	1
35	59	1
37	59	1
39	59	1
40	59	1
45	59	1
47	59	1
48	59	1
50	59	1
51	59	1
53	59	1
56	59	1
57	59	1
2	60	1
3	60	1
5	60	1
6	60	1
10	60	1
11	60	1
12	60	1
13	60	1
15	60	1
16	60	1
17	60	1
18	60	1
20	60	1
22	60	1
23	60	1
26	60	1
29	60	1
32	60	1
34	60	1
35	60	1
37	60	1
38	60	1
39	60	1
40	60	1
41	60	1
43	60	1
44	60	1
46	60	1
47	60	1
48	60	1
50	60	1
51	60	1
52	60	1
55	60	1
59	60	1
5	61	1
6	61	1
7	61	1
8	61	1
10	61	1
12	61	1
13	61	1
18	61	1
19	61	1
20	61	1
21	61	1
23	61	1
29	61	1
30	61	1
31	61	1
33	61	1
36	61	1
37	61	1
38	61	1
43	61	1
44	61	1
45	61	1
46	61	1
47	61	1
48	61	1
50	61	1
51	61	1
52	61	1
56	61	1
57	61	1
58	61	1
59	61	1
60	61	1
5	62	1
6	62	1
8	62	1
9	62	1
10	62	1
11	62	1
16	62	1
23	62	1
24	62	1
26	62	1
27	62	1
28	62	1
29	62	1
30	62	1
33	62	1
34	62	1
35	62	1
36	62	1
38	62	1
40	62	1
41	62	1
43	62	1
45	62	1
46	62	1
48	62	1
49	62	1
51	62	1
52	62	1
56	62	1
57	62	1
59	62	1
60	62	1
61	62	1
3	63	1
4	63	1
6	63	1
7	63	1
8	63	1
12	63	1
13	63	1
15	63	1
17	63	1
18	63	1
19	63	1
21	63	1
26	63	1
27	63	1
28	63	1
29	63	1
32	63	1
33	63	1
36	63	1
42	63	1
43	63	1
45	63	1
46	63	1
47	63	1
52	63	1
54	63	1
55	63	1
61	63	1
1	64	1
2	64	1
3	64	1
4	64	1
7	64	1
9	64	1
10	64	1
13	64	1
14	64	1
16	64	1
17	64	1
18	64	1
19	64	1
21	64	1
24	64	1
27	64	1
31	64	1
33	64	1
35	64	1
37	64	1
38	64	1
42	64	1
44	64	1
45	64	1
46	64	1
51	64	1
52	64	1
54	64	1
57	64	1
58	64	1
63	64	1
1	65	1
7	65	1
8	65	1
9	65	1
10	65	1
12	65	1
15	65	1
16	65	1
20	65	1
23	65	1
25	65	1
27	65	1
28	65	1
29	65	1
31	65	1
36	65	1
39	65	1
41	65	1
42	65	1
43	65	1
44	65	1
45	65	1
46	65	1
51	65	1
54	65	1
59	65	1
60	65	1
62	65	1
64	65	1
2	66	1
3	66	1
4	66	1
7	66	1
9	66	1
10	66	1
15	66	1
18	66	1
19	66	1
20	66	1
27	66	1
28	66	1
31	66	1
35	66	1
36	66	1
38	66	1
43	66	1
47	66	1
48	66	1
49	66	1
53	66	1
54	66	1
56	66	1
57	66	1
58	66	1
59	66	1
61	66	1
63	66	1
64	66	1
2	67	1
6	67	1
8	67	1
10	67	1
11	67	1
13	67	1
16	67	1
17	67	1
20	67	1
21	67	1
22	67	1
24	67	1
26	67	1
29	67	1
30	67	1
31	67	1
35	67	1
37	67	1
39	67	1
42	67	1
43	67	1
45	67	1
46	67	1
50	67	1
55	67	1
56	67	1
60	67	1
62	67	1
64	67	1
65	67	1
66	67	1
1	68	1
2	68	1
5	68	1
7	68	1
9	68	1
10	68	1
11	68	1
12	68	1
13	68	1
14	68	1
15	68	1
16	68	1
20	68	1
22	68	1
25	68	1
26	68	1
29	68	1
30	68	1
31	68	1
35	68	1
36	68	1
41	68	1
43	68	1
47	68	1
48	68	1
52	68	1
54	68	1
55	68	1
56	68	1
57	68	1
59	68	1
60	68	1
61	68	1
63	68	1
64	68	1
65	68	1
66	68	1
1	69	1
3	69	1
6	69	1
7	69	1
10	69	1
13	69	1
15	69	1
16	69	1
17	69	1
24	69	1
26	69	1
29	69	1
30	69	1
33	69	1
34	69	1
35	69	1
37	69	1
38	69	1
39	69	1
41	69	1
48	69	1
49	69	1
50	69	1
52	69	1
54	69	1
59	69	1
61	69	1
62	69	1
63	69	1
66	69	1
67	69	1
68	69	1
1	70	1
3	70	1
4	70	1
7	70	1
10	70	1
14	70	1
15	70	1
16	70	1
19	70	1
20	70	1
22	70	1
24	70	1
27	70	1
28	70	1
32	70	1
34	70	1
35	70	1
37	70	1
38	70	1
39	70	1
42	70	1
45	70	1
46	70	1
48	70	1
49	70	1
50	70	1
53	70	1
54	70	1
55	70	1
58	70	1
61	70	1
62	70	1
63	70	1
64	70	1
65	70	1
68	70	1
3	71	1
9	71	1
10	71	1
12	71	1
14	71	1
16	71	1
19	71	1
20	71	1
21	71	1
22	71	1
25	71	1
27	71	1
30	71	1
33	71	1
35	71	1
40	71	1
42	71	1
43	71	1
44	71	1
45	71	1
47	71	1
48	71	1
49	71	1
53	71	1
57	71	1
58	71	1
59	71	1
60	71	1
62	71	1
69	71	1
70	71	1
5	72	1
6	72	1
8	72	1
9	72	1
10	72	1
12	72	1
13	72	1
15	72	1
16	72	1
17	72	1
18	72	1
20	72	1
23	72	1
24	72	1
25	72	1
26	72	1
27	72	1
30	72	1
31	72	1
32	72	1
36	72	1
37	72	1
38	72	1
39	72	1
41	72	1
42	72	1
44	72	1
49	72	1
50	72	1
51	72	1
52	72	1
53	72	1
57	72	1
58	72	1
59	72	1
60	72	1
62	72	1
64	72	1
66	72	1
68	72	1
69	72	1
70	72	1
3	73	1
6	73	1
10	73	1
15	73	1
16	73	1
18	73	1
24	73	1
25	73	1
26	73	1
27	73	1
30	73	1
31	73	1
34	73	1
35	73	1
36	73	1
38	73	1
39	73	1
41	73	1
43	73	1
45	73	1
46	73	1
48	73	1
49	73	1
50	73	1
52	73	1
53	73	1
54	73	1
55	73	1
56	73	1
58	73	1
61	73	1
64	73	1
65	73	1
71	73	1
72	73	1
1	74	1
4	74	1
8	74	1
9	74	1
12	74	1
14	74	1
15	74	1
17	74	1
18	74	1
20	74	1
21	74	1
22	74	1
26	74	1
30	74	1
34	74	1
36	74	1
37	74	1
38	74	1
40	74	1
41	74	1
42	74	1
43	74	1
44	74	1
45	74	1
47	74	1
49	74	1
51	74	1
52	74	1
53	74	1
54	74	1
55	74	1
57	74	1
60	74	1
63	74	1
64	74	1
65	74	1
67	74	1
68	74	1
69	74	1
5	75	1
6	75	1
8	75	1
12	75	1
17	75	1
18	75	1
19	75	1
21	75	1
22	75	1
23	75	1
24	75	1
26	75	1
27	75	1
28	75	1
29	75	1
32	75	1
33	75	1
35	75	1
36	75	1
39	75	1
44	75	1
45	75	1
51	75	1
53	75	1
57	75	1
63	75	1
64	75	1
68	75	1
72	75	1
2	76	1
3	76	1
4	76	1
5	76	1
6	76	1
7	76	1
9	76	1
11	76	1
13	76	1
14	76	1
16	76	1
17	76	1
18	76	1
19	76	1
26	76	1
27	76	1
28	76	1
29	76	1
30	76	1
32	76	1
33	76	1
35	76	1
37	76	1
40	76	1
41	76	1
42	76	1
48	76	1
49	76	1
53	76	1
54	76	1
55	76	1
58	76	1
60	76	1
63	76	1
64	76	1
65	76	1
67	76	1
69	76	1
71	76	1
74	76	1
75	76	1
1	77	1
3	77	1
5	77	1
7	77	1
8	77	1
10	77	1
12	77	1
13	77	1
15	77	1
16	77	1
17	77	1
18	77	1
20	77	1
21	77	1
23	77	1
26	77	1
27	77	1
28	77	1
31	77	1
33	77	1
36	77	1
40	77	1
42	77	1
44	77	1
51	77	1
53	77	1
55	77	1
56	77	1
59	77	1
61	77	1
62	77	1
64	77	1
65	77	1
66	77	1
67	77	1
68	77	1
70	77	1
71	77	1
72	77	1
75	77	1
1	78	1
2	78	1
4	78	1
7	78	1
8	78	1
9	78	1
10	78	1
14	78	1
16	78	1
17	78	1
18	78	1
20	78	1
23	78	1
25	78	1
27	78	1
28	78	1
31	78	1
32	78	1
33	78	1
34	78	1
40	78	1
42	78	1
43	78	1
44	78	1
45	78	1
47	78	1
49	78	1
50	78	1
51	78	1
52	78	1
54	78	1
56	78	1
62	78	1
63	78	1
66	78	1
69	78	1
70	78	1
73	78	1
4	79	1
5	79	1
6	79	1
9	79	1
12	79	1
13	79	1
15	79	1
21	79	1
23	79	1
24	79	1
25	79	1
29	79	1
32	79	1
34	79	1
37	79	1
38	79	1
40	79	1
42	79	1
44	79	1
45	79	1
48	79	1
49	79	1
54	79	1
55	79	1
59	79	1
62	79	1
66	79	1
67	79	1
70	79	1
72	79	1
74	79	1
75	79	1
77	79	1
78	79	1
2	80	1
5	80	1
11	80	1
14	80	1
15	80	1
19	80	1
21	80	1
23	80	1
24	80	1
25	80	1
27	80	1
29	80	1
32	80	1
33	80	1
36	80	1
39	80	1
40	80	1
43	80	1
46	80	1
47	80	1
49	80	1
50	80	1
54	80	1
55	80	1
57	80	1
58	80	1
60	80	1
61	80	1
62	80	1
63	80	1
65	80	1
67	80	1
71	80	1
77	80	1
